============================[ Problem Statistics ]=============================|                                                                             ||  Number of variables:          4242                                         ||  Number of clauses:            9695                                         ||  Parse time:                   0.10 s                                       ||                                                                             |============================[ Search Statistics ]==============================| Conflicts |          ORIGINAL         |          LEARNT          | Progress ||           |    Vars  Clauses Literals |    Limit  Clauses Lit/Cl |          |==============================================================================================================================================================restarts              : 1conflicts             : 61             (401 /sec)decisions             : 145            (0.00 % random) (954 /sec)propagations          : 8151           (53625 /sec)conflict literals     : 2860           (95.91 % deleted)CPU time              : 0.152 sSATISFIABLE